
Value of objective function: 1330

Actual values of the variables:
C9                              1
C10                             1
C11                             1
C12                             1
C13                             0
C14                             0
C15                             0
C16                             1
C21                             1
C22                             1
C23                             1
C2                              1
C5                              0
C19                             1
C1                              1
C4                              0
C18                             1
C3                              0
C6                              1
C17                             1
C20                             1
C8                              1
C7                              1

Actual values of the constraints:
R1                              0
R2                              0
R3                              0
R4                              0
R5                              0
R6                              0
R7                              0
R8                              0
R9                              0
R10                             0
R11                             0
R12                             0
R13                             0
R14                             0
R15                             0
R16                             1
R17                             1
R18                             1
R19                             1
R20                             1
R21                             1
R22                             1
R23                             1
R24                             1
R25                             1
R26                             1
R27                             0
R28                             0
R29                             0
